gurobi_inputs/293_50.lp
Minimize
	0.67 x0_1 + 0.67 x0_3 + 0.67 x0_6 + 0.67 x1_0 + 0.67 x1_3 + 0.67 x2_3 + 0.67 x3_0 + 0.67 x3_1 + 0.67 x3_2 + 0.67 x3_4 + 0.67 x3_5 + 0.67 x3_6 + 0.67 x4_3 + 0.67 x5_3 + 0.67 x6_0 + 0.67 x6_3
	+ 2.0 c0_2 + 1.0 c0_3 + 2.0 c0_4 + 2.0 c0_5 + 2.0 c1_2 + 1.0 c1_3 + 2.0 c1_4 + 2.0 c1_5 + 0 c2_2 + 1.0 c2_3 + 2.0 c2_4 + 2.0 c2_5 + 1.0 c3_2 + 0 c3_3 + 1.0 c3_4 + 1.0 c3_5 + 2.0 c4_2 + 1.0 c4_3 + 0 c4_4 + 2.0 c4_5 + 2.0 c5_2 + 1.0 c5_3 + 2.0 c5_4 + 0 c5_5 + 2.0 c6_2 + 1.0 c6_3 + 2.0 c6_4 + 2.0 c6_5 
Subject To
	c0_2 + c1_2 + c2_2 + c3_2 + c4_2 + c5_2 + c6_2 = 1
	c0_3 + c1_3 + c2_3 + c3_3 + c4_3 + c5_3 + c6_3 = 1
	c0_4 + c1_4 + c2_4 + c3_4 + c4_4 + c5_4 + c6_4 = 1
	c0_5 + c1_5 + c2_5 + c3_5 + c4_5 + c5_5 + c6_5 = 1
	x0_0 - x0_0 + x1_0 - x0_1 + x2_0 - x0_2 + x3_0 - x0_3 + x4_0 - x0_4 + x5_0 - x0_5 + x6_0 - x0_6 = 0
	x0_1 - x1_0 + x1_1 - x1_1 + x2_1 - x1_2 + x3_1 - x1_3 + x4_1 - x1_4 + x5_1 - x1_5 + x6_1 - x1_6 = 0
	x0_2 - x2_0 + x1_2 - x2_1 + x2_2 - x2_2 + x3_2 - x2_3 + x4_2 - x2_4 + x5_2 - x2_5 + x6_2 - x2_6 = 0
	x0_3 - x3_0 + x1_3 - x3_1 + x2_3 - x3_2 + x3_3 - x3_3 + x4_3 - x3_4 + x5_3 - x3_5 + x6_3 - x3_6 = 0
	x0_4 - x4_0 + x1_4 - x4_1 + x2_4 - x4_2 + x3_4 - x4_3 + x4_4 - x4_4 + x5_4 - x4_5 + x6_4 - x4_6 = 0
	x0_5 - x5_0 + x1_5 - x5_1 + x2_5 - x5_2 + x3_5 - x5_3 + x4_5 - x5_4 + x5_5 - x5_5 + x6_5 - x5_6 = 0
	x0_6 - x6_0 + x1_6 - x6_1 + x2_6 - x6_2 + x3_6 - x6_3 + x4_6 - x6_4 + x5_6 - x6_5 + x6_6 - x6_6 = 0
	u1 - u2 + 7 x1_2 <= 6
	u1 - u3 + 7 x1_3 <= 6
	u1 - u4 + 7 x1_4 <= 6
	u1 - u5 + 7 x1_5 <= 6
	u1 - u6 + 7 x1_6 <= 6
	u2 - u1 + 7 x2_1 <= 6
	u2 - u3 + 7 x2_3 <= 6
	u2 - u4 + 7 x2_4 <= 6
	u2 - u5 + 7 x2_5 <= 6
	u2 - u6 + 7 x2_6 <= 6
	u3 - u1 + 7 x3_1 <= 6
	u3 - u2 + 7 x3_2 <= 6
	u3 - u4 + 7 x3_4 <= 6
	u3 - u5 + 7 x3_5 <= 6
	u3 - u6 + 7 x3_6 <= 6
	u4 - u1 + 7 x4_1 <= 6
	u4 - u2 + 7 x4_2 <= 6
	u4 - u3 + 7 x4_3 <= 6
	u4 - u5 + 7 x4_5 <= 6
	u4 - u6 + 7 x4_6 <= 6
	u5 - u1 + 7 x5_1 <= 6
	u5 - u2 + 7 x5_2 <= 6
	u5 - u3 + 7 x5_3 <= 6
	u5 - u4 + 7 x5_4 <= 6
	u5 - u6 + 7 x5_6 <= 6
	u6 - u1 + 7 x6_1 <= 6
	u6 - u2 + 7 x6_2 <= 6
	u6 - u3 + 7 x6_3 <= 6
	u6 - u4 + 7 x6_4 <= 6
	u6 - u5 + 7 x6_5 <= 6
	x0_0 + x1_0 + x2_0 + x3_0 + x4_0 + x5_0 + x6_0 - c0_2 >= 0
	x0_1 + x1_1 + x2_1 + x3_1 + x4_1 + x5_1 + x6_1 - c1_2 >= 0
	x0_2 + x1_2 + x2_2 + x3_2 + x4_2 + x5_2 + x6_2 - c2_2 >= 0
	x0_3 + x1_3 + x2_3 + x3_3 + x4_3 + x5_3 + x6_3 - c3_2 >= 0
	x0_4 + x1_4 + x2_4 + x3_4 + x4_4 + x5_4 + x6_4 - c4_2 >= 0
	x0_5 + x1_5 + x2_5 + x3_5 + x4_5 + x5_5 + x6_5 - c5_2 >= 0
	x0_6 + x1_6 + x2_6 + x3_6 + x4_6 + x5_6 + x6_6 - c6_2 >= 0
	x0_0 + x1_0 + x2_0 + x3_0 + x4_0 + x5_0 + x6_0 - c0_3 >= 0
	x0_1 + x1_1 + x2_1 + x3_1 + x4_1 + x5_1 + x6_1 - c1_3 >= 0
	x0_2 + x1_2 + x2_2 + x3_2 + x4_2 + x5_2 + x6_2 - c2_3 >= 0
	x0_3 + x1_3 + x2_3 + x3_3 + x4_3 + x5_3 + x6_3 - c3_3 >= 0
	x0_4 + x1_4 + x2_4 + x3_4 + x4_4 + x5_4 + x6_4 - c4_3 >= 0
	x0_5 + x1_5 + x2_5 + x3_5 + x4_5 + x5_5 + x6_5 - c5_3 >= 0
	x0_6 + x1_6 + x2_6 + x3_6 + x4_6 + x5_6 + x6_6 - c6_3 >= 0
	x0_0 + x1_0 + x2_0 + x3_0 + x4_0 + x5_0 + x6_0 - c0_4 >= 0
	x0_1 + x1_1 + x2_1 + x3_1 + x4_1 + x5_1 + x6_1 - c1_4 >= 0
	x0_2 + x1_2 + x2_2 + x3_2 + x4_2 + x5_2 + x6_2 - c2_4 >= 0
	x0_3 + x1_3 + x2_3 + x3_3 + x4_3 + x5_3 + x6_3 - c3_4 >= 0
	x0_4 + x1_4 + x2_4 + x3_4 + x4_4 + x5_4 + x6_4 - c4_4 >= 0
	x0_5 + x1_5 + x2_5 + x3_5 + x4_5 + x5_5 + x6_5 - c5_4 >= 0
	x0_6 + x1_6 + x2_6 + x3_6 + x4_6 + x5_6 + x6_6 - c6_4 >= 0
	x0_0 + x1_0 + x2_0 + x3_0 + x4_0 + x5_0 + x6_0 - c0_5 >= 0
	x0_1 + x1_1 + x2_1 + x3_1 + x4_1 + x5_1 + x6_1 - c1_5 >= 0
	x0_2 + x1_2 + x2_2 + x3_2 + x4_2 + x5_2 + x6_2 - c2_5 >= 0
	x0_3 + x1_3 + x2_3 + x3_3 + x4_3 + x5_3 + x6_3 - c3_5 >= 0
	x0_4 + x1_4 + x2_4 + x3_4 + x4_4 + x5_4 + x6_4 - c4_5 >= 0
	x0_5 + x1_5 + x2_5 + x3_5 + x4_5 + x5_5 + x6_5 - c5_5 >= 0
	x0_6 + x1_6 + x2_6 + x3_6 + x4_6 + x5_6 + x6_6 - c6_5 >= 0
	x0_0 + x0_1 + x0_2 + x0_3 + x0_4 + x0_5 + x0_6 > 0
Bounds
	x0_0 = 0
	x0_2 = 0
	x0_4 = 0
	x0_5 = 0
	x1_1 = 0
	x1_2 = 0
	x1_4 = 0
	x1_5 = 0
	x1_6 = 0
	x2_0 = 0
	x2_1 = 0
	x2_2 = 0
	x2_4 = 0
	x2_5 = 0
	x2_6 = 0
	x3_3 = 0
	x4_0 = 0
	x4_1 = 0
	x4_2 = 0
	x4_4 = 0
	x4_5 = 0
	x4_6 = 0
	x5_0 = 0
	x5_1 = 0
	x5_2 = 0
	x5_4 = 0
	x5_5 = 0
	x5_6 = 0
	x6_1 = 0
	x6_2 = 0
	x6_4 = 0
	x6_5 = 0
	x6_6 = 0
Binary
	x0_1 x0_3 x0_6 x1_0 x1_3 x2_3 x3_0 x3_1 x3_2 x3_4 x3_5 x3_6 x4_3 x5_3 x6_0 x6_3 c0_2 c0_3 c0_4 c0_5 c1_2 c1_3 c1_4 c1_5 c2_2 c2_3 c2_4 c2_5 c3_2 c3_3 c3_4 c3_5 c4_2 c4_3 c4_4 c4_5 c5_2 c5_3 c5_4 c5_5 c6_2 c6_3 c6_4 c6_5 
Integers
	u1 u2 u3 u4 u5 u6 End