gurobi_solutions/293_50.txt
# Objective value = 4.3334
x0_1 0
x0_3 1
x0_6 0
x1_0 0
x1_3 0
x2_3 0
x3_0 1
x3_1 0
x3_2 0
x3_4 0
x3_5 0
x3_6 0
x4_3 0
x5_3 0
x6_0 0
x6_3 0
c0_2 0
c0_3 0
c0_4 0
c0_5 0
c1_2 0
c1_3 0
c1_4 0
c1_5 0
c2_2 0
c2_3 0
c2_4 0
c2_5 0
c3_2 1
c3_3 1
c3_4 1
c3_5 1
c4_2 0
c4_3 0
c4_4 0
c4_5 0
c5_2 0
c5_3 0
c5_4 0
c5_5 0
c6_2 0
c6_3 0
c6_4 0
c6_5 0
x0_0 0
x2_0 0
x0_2 0
x4_0 0
x0_4 0
x5_0 0
x0_5 0
x1_1 0
x2_1 0
x1_2 0
x4_1 0
x1_4 0
x5_1 0
x1_5 0
x6_1 0
x1_6 0
x2_2 0
x4_2 0
x2_4 0
x5_2 0
x2_5 0
x6_2 0
x2_6 0
x3_3 0
x4_4 0
x5_4 0
x4_5 0
x6_4 0
x4_6 0
x5_5 0
x6_5 0
x5_6 0
x6_6 0
u1 0
u2 0
u3 0
u4 0
u5 0
u6 0
